; benchmark generated from python API
(set-info :status unknown)
(declare-fun syscall_stub_newfstatat_83_64 () (_ BitVec 64))
(declare-fun mem_c0000f45_79_992 () (_ BitVec 992))
(declare-fun mem_c0001010_98_32 () (_ BitVec 32))
(declare-fun mem_fffffff9feffffff_119_8 () (_ BitVec 8))
(declare-fun mem_fffffff9ff000000_325_128 () (_ BitVec 128))
(declare-fun mem_fffffff9ff000010_1104_128 () (_ BitVec 128))
(assert
 (let ((?x47 ((_ extract 31 0) syscall_stub_newfstatat_83_64)))
 (let (($x52 (bvule ?x47 (_ bv4294963200 32))))
 (not $x52))))
(assert
 (let ((?x2189 ((_ extract 900 900) mem_c0000f45_79_992)))
 (= (_ bv0 1) ?x2189)))
(assert
 (let ((?x3699 ((_ extract 891 891) mem_c0000f45_79_992)))
 (= (_ bv0 1) ?x3699)))
(assert
 (let ((?x2374 ((_ extract 839 832) mem_c0000f45_79_992)))
 (let ((?x2364 ((_ extract 831 824) mem_c0000f45_79_992)))
 (let ((?x2349 ((_ extract 823 816) mem_c0000f45_79_992)))
 (let ((?x2357 ((_ extract 815 808) mem_c0000f45_79_992)))
 (let ((?x2362 ((_ extract 807 800) mem_c0000f45_79_992)))
 (let ((?x2363 ((_ extract 799 792) mem_c0000f45_79_992)))
 (let ((?x593 (concat (concat ((_ extract 783 776) mem_c0000f45_79_992) ((_ extract 791 784) mem_c0000f45_79_992)) ?x2363)))
 (let ((?x4215 (concat (concat (concat (concat ?x593 ?x2362) ?x2357) ?x2349) ?x2364)))
 (let ((?x3812 (concat ?x4215 ?x2374)))
 (let ((?x2427 ((_ extract 775 768) mem_c0000f45_79_992)))
 (let ((?x2419 ((_ extract 767 760) mem_c0000f45_79_992)))
 (let ((?x2429 ((_ extract 759 752) mem_c0000f45_79_992)))
 (let ((?x2417 ((_ extract 751 744) mem_c0000f45_79_992)))
 (let ((?x2410 ((_ extract 743 736) mem_c0000f45_79_992)))
 (let ((?x2411 ((_ extract 735 728) mem_c0000f45_79_992)))
 (let ((?x4124 (concat (concat ((_ extract 719 712) mem_c0000f45_79_992) ((_ extract 727 720) mem_c0000f45_79_992)) ?x2411)))
 (let ((?x4642 (concat ?x4124 ?x2410)))
 (let ((?x3823 (concat (concat (concat (concat ?x4642 ?x2417) ?x2429) ?x2419) ?x2427)))
 (bvule ?x3823 ?x3812))))))))))))))))))))
(assert
 (let ((?x8705 ((_ extract 888 888) mem_c0000f45_79_992)))
 (let (($x9102 (= (_ bv0 1) ?x8705)))
 (not $x9102))))
(assert
 (let ((?x15059 ((_ extract 199 192) mem_c0000f45_79_992)))
 (let ((?x15057 ((_ extract 191 184) mem_c0000f45_79_992)))
 (let ((?x15055 ((_ extract 183 176) mem_c0000f45_79_992)))
 (let ((?x15053 ((_ extract 175 168) mem_c0000f45_79_992)))
 (let ((?x15049 ((_ extract 167 160) mem_c0000f45_79_992)))
 (let ((?x15050 ((_ extract 159 152) mem_c0000f45_79_992)))
 (let ((?x21207 (concat (concat ((_ extract 143 136) mem_c0000f45_79_992) ((_ extract 151 144) mem_c0000f45_79_992)) ?x15050)))
 (let ((?x20542 (concat (concat (concat (concat (concat ?x21207 ?x15049) ?x15053) ?x15055) ?x15057) ?x15059)))
 (let (($x42884 (bvule ?x20542 (_ bv18446744047922970623 64))))
 (not $x42884)))))))))))
(assert
 (let ((?x14887 ((_ extract 327 320) mem_c0000f45_79_992)))
 (= (_ bv255 8) ?x14887)))
(assert
 (let ((?x14869 ((_ extract 319 312) mem_c0000f45_79_992)))
 (= (_ bv255 8) ?x14869)))
(assert
 (let ((?x14893 ((_ extract 311 304) mem_c0000f45_79_992)))
 (= (_ bv255 8) ?x14893)))
(assert
 (let ((?x14875 ((_ extract 303 296) mem_c0000f45_79_992)))
 (= (_ bv254 8) ?x14875)))
(assert
 (let ((?x14872 ((_ extract 295 288) mem_c0000f45_79_992)))
 (= (_ bv249 8) ?x14872)))
(assert
 (let ((?x14857 ((_ extract 287 280) mem_c0000f45_79_992)))
 (= (_ bv255 8) ?x14857)))
(assert
 (let ((?x14868 ((_ extract 279 272) mem_c0000f45_79_992)))
 (= (_ bv255 8) ?x14868)))
(assert
 (let ((?x14951 ((_ extract 271 264) mem_c0000f45_79_992)))
 (= (_ bv255 8) ?x14951)))
(assert
 (let ((?x1717766 ((_ extract 323 320) mem_c0000f45_79_992)))
 (let ((?x1717414 (bvadd (_ bv1 4) ?x1717766)))
 (let ((?x1718072 (concat (_ bv0 60) ?x1717414)))
 (let ((?x15059 ((_ extract 199 192) mem_c0000f45_79_992)))
 (let ((?x15057 ((_ extract 191 184) mem_c0000f45_79_992)))
 (let ((?x15055 ((_ extract 183 176) mem_c0000f45_79_992)))
 (let ((?x15053 ((_ extract 175 168) mem_c0000f45_79_992)))
 (let ((?x15049 ((_ extract 167 160) mem_c0000f45_79_992)))
 (let ((?x15050 ((_ extract 159 152) mem_c0000f45_79_992)))
 (let ((?x21207 (concat (concat ((_ extract 143 136) mem_c0000f45_79_992) ((_ extract 151 144) mem_c0000f45_79_992)) ?x15050)))
 (let ((?x20542 (concat (concat (concat (concat (concat ?x21207 ?x15049) ?x15053) ?x15055) ?x15057) ?x15059)))
 (let ((?x3230667 (bvadd (_ bv25786580992 64) ?x20542)))
 (let ((?x79480 ((_ extract 312 312) mem_c0000f45_79_992)))
 (let ((?x185464 (concat ?x79480 (_ bv255 8))))
 (let ((?x189320 (bvmul (_ bv511 9) ?x185464)))
 (let ((?x79635 ((_ extract 184 184) mem_c0000f45_79_992)))
 (let ((?x79447 (concat ?x79635 ?x15059)))
 (let ((?x195249 (bvadd (_ bv511 9) ?x79447)))
 (let ((?x3227836 (bvadd ?x195249 ?x189320)))
 (let (($x3230513 (bvule ?x3227836 (_ bv398 9))))
 (let ((?x3227562 ((_ extract 63 9) ?x3230667)))
 (let (($x3231185 (= (_ bv0 55) ?x3227562)))
 (let (($x3227910 (and $x3231185 $x3230513)))
 (let ((?x3225274 (ite $x3227910 ?x3230667 (_ bv398 64))))
 (let ((?x3227397 (bvadd (bvadd (_ bv18446744073709551600 64) ?x3225274) ?x1718072)))
 (let ((?x3227807 ((_ extract 63 7) ?x3227397)))
 (= (_ bv0 57) ?x3227807))))))))))))))))))))))))))))
(assert
 (let ((?x1717766 ((_ extract 323 320) mem_c0000f45_79_992)))
 (let ((?x1717414 (bvadd (_ bv1 4) ?x1717766)))
 (let ((?x2444620 (concat (_ bv0 28) ?x1717414)))
 (let ((?x15059 ((_ extract 199 192) mem_c0000f45_79_992)))
 (let ((?x15057 ((_ extract 191 184) mem_c0000f45_79_992)))
 (let ((?x467252 (concat (concat ((_ extract 175 168) mem_c0000f45_79_992) ((_ extract 183 176) mem_c0000f45_79_992)) ?x15057)))
 (let ((?x465344 (concat ?x467252 ?x15059)))
 (let ((?x2436467 (bvadd (_ bv16777216 32) ?x465344)))
 (let ((?x79480 ((_ extract 312 312) mem_c0000f45_79_992)))
 (let ((?x185464 (concat ?x79480 (_ bv255 8))))
 (let ((?x189320 (bvmul (_ bv511 9) ?x185464)))
 (let ((?x79635 ((_ extract 184 184) mem_c0000f45_79_992)))
 (let ((?x79447 (concat ?x79635 ?x15059)))
 (let ((?x195249 (bvadd (_ bv511 9) ?x79447)))
 (let ((?x3227836 (bvadd ?x195249 ?x189320)))
 (let (($x3230513 (bvule ?x3227836 (_ bv398 9))))
 (let ((?x15055 ((_ extract 183 176) mem_c0000f45_79_992)))
 (let ((?x15053 ((_ extract 175 168) mem_c0000f45_79_992)))
 (let ((?x15049 ((_ extract 167 160) mem_c0000f45_79_992)))
 (let ((?x15050 ((_ extract 159 152) mem_c0000f45_79_992)))
 (let ((?x21207 (concat (concat ((_ extract 143 136) mem_c0000f45_79_992) ((_ extract 151 144) mem_c0000f45_79_992)) ?x15050)))
 (let ((?x20542 (concat (concat (concat (concat (concat ?x21207 ?x15049) ?x15053) ?x15055) ?x15057) ?x15059)))
 (let ((?x3230667 (bvadd (_ bv25786580992 64) ?x20542)))
 (let ((?x3227562 ((_ extract 63 9) ?x3230667)))
 (let (($x3231185 (= (_ bv0 55) ?x3227562)))
 (let (($x3227910 (and $x3231185 $x3230513)))
 (let ((?x2434913 (ite $x3227910 ?x2436467 (_ bv398 32))))
 (let ((?x1603879 (bvadd (bvadd (_ bv4294967248 32) ?x2434913) ?x2444620)))
 (let ((?x1603370 ((_ extract 31 31) ?x1603879)))
 (let ((?x1718072 (concat (_ bv0 60) ?x1717414)))
 (let ((?x2430833 (bvadd (bvadd (_ bv18446744073709551536 64) (ite $x3227910 ?x3230667 (_ bv398 64))) ?x1718072)))
 (let ((?x2430835 ((_ extract 31 31) ?x2430833)))
 (let (($x2430841 (= ?x2430835 ?x1603370)))
 (let (($x2430836 (= (_ bv1 1) ?x2430835)))
 (let (($x1603046 (or $x2430836 $x2430841)))
 (let ((?x1532447 (ite $x1603046 (_ bv1 1) (_ bv0 1))))
 (let (($x1603047 (= ?x1603370 ?x1532447)))
 (not $x1603047)))))))))))))))))))))))))))))))))))))))
(assert
 (let ((?x1717766 ((_ extract 323 320) mem_c0000f45_79_992)))
 (let ((?x1717414 (bvadd (_ bv1 4) ?x1717766)))
 (let ((?x1718647 (concat (_ bv0 3) ?x1717414)))
 (let ((?x3226133 ((_ extract 326 320) mem_c0000f45_79_992)))
 (let ((?x3223339 (bvmul (_ bv127 7) ?x3226133)))
 (let ((?x3229633 (bvadd (bvadd (_ bv127 7) ((_ extract 198 192) mem_c0000f45_79_992)) ?x3223339)))
 (let ((?x79480 ((_ extract 312 312) mem_c0000f45_79_992)))
 (let ((?x185464 (concat ?x79480 (_ bv255 8))))
 (let ((?x189320 (bvmul (_ bv511 9) ?x185464)))
 (let ((?x15059 ((_ extract 199 192) mem_c0000f45_79_992)))
 (let ((?x79635 ((_ extract 184 184) mem_c0000f45_79_992)))
 (let ((?x79447 (concat ?x79635 ?x15059)))
 (let ((?x195249 (bvadd (_ bv511 9) ?x79447)))
 (let ((?x3227836 (bvadd ?x195249 ?x189320)))
 (let (($x3230513 (bvule ?x3227836 (_ bv398 9))))
 (let ((?x15057 ((_ extract 191 184) mem_c0000f45_79_992)))
 (let ((?x15055 ((_ extract 183 176) mem_c0000f45_79_992)))
 (let ((?x15053 ((_ extract 175 168) mem_c0000f45_79_992)))
 (let ((?x15049 ((_ extract 167 160) mem_c0000f45_79_992)))
 (let ((?x15050 ((_ extract 159 152) mem_c0000f45_79_992)))
 (let ((?x21207 (concat (concat ((_ extract 143 136) mem_c0000f45_79_992) ((_ extract 151 144) mem_c0000f45_79_992)) ?x15050)))
 (let ((?x20542 (concat (concat (concat (concat (concat ?x21207 ?x15049) ?x15053) ?x15055) ?x15057) ?x15059)))
 (let ((?x3230667 (bvadd (_ bv25786580992 64) ?x20542)))
 (let ((?x3227562 ((_ extract 63 9) ?x3230667)))
 (let (($x3231185 (= (_ bv0 55) ?x3227562)))
 (let (($x3227910 (and $x3231185 $x3230513)))
 (let ((?x3229056 (ite $x3227910 ?x3229633 (_ bv14 7))))
 (let ((?x3226712 (bvadd (bvadd (_ bv112 7) ?x3229056) ?x1718647)))
 (bvule ?x3226712 (_ bv64 7)))))))))))))))))))))))))))))))
(assert
 (let ((?x1717766 ((_ extract 323 320) mem_c0000f45_79_992)))
 (let ((?x1717414 (bvadd (_ bv1 4) ?x1717766)))
 (let ((?x2444620 (concat (_ bv0 28) ?x1717414)))
 (let ((?x2435304 (bvmul (_ bv4294967295 32) ?x2444620)))
 (let ((?x2438685 (bvadd (_ bv48 32) ?x2435304)))
 (let ((?x15059 ((_ extract 199 192) mem_c0000f45_79_992)))
 (let ((?x15057 ((_ extract 191 184) mem_c0000f45_79_992)))
 (let ((?x467252 (concat (concat ((_ extract 175 168) mem_c0000f45_79_992) ((_ extract 183 176) mem_c0000f45_79_992)) ?x15057)))
 (let ((?x465344 (concat ?x467252 ?x15059)))
 (let ((?x2436467 (bvadd (_ bv16777216 32) ?x465344)))
 (let ((?x79480 ((_ extract 312 312) mem_c0000f45_79_992)))
 (let ((?x185464 (concat ?x79480 (_ bv255 8))))
 (let ((?x189320 (bvmul (_ bv511 9) ?x185464)))
 (let ((?x79635 ((_ extract 184 184) mem_c0000f45_79_992)))
 (let ((?x79447 (concat ?x79635 ?x15059)))
 (let ((?x195249 (bvadd (_ bv511 9) ?x79447)))
 (let ((?x3227836 (bvadd ?x195249 ?x189320)))
 (let (($x3230513 (bvule ?x3227836 (_ bv398 9))))
 (let ((?x15055 ((_ extract 183 176) mem_c0000f45_79_992)))
 (let ((?x15053 ((_ extract 175 168) mem_c0000f45_79_992)))
 (let ((?x15049 ((_ extract 167 160) mem_c0000f45_79_992)))
 (let ((?x15050 ((_ extract 159 152) mem_c0000f45_79_992)))
 (let ((?x21207 (concat (concat ((_ extract 143 136) mem_c0000f45_79_992) ((_ extract 151 144) mem_c0000f45_79_992)) ?x15050)))
 (let ((?x20542 (concat (concat (concat (concat (concat ?x21207 ?x15049) ?x15053) ?x15055) ?x15057) ?x15059)))
 (let ((?x3230667 (bvadd (_ bv25786580992 64) ?x20542)))
 (let ((?x3227562 ((_ extract 63 9) ?x3230667)))
 (let (($x3231185 (= (_ bv0 55) ?x3227562)))
 (let (($x3227910 (and $x3231185 $x3230513)))
 (let ((?x2434913 (ite $x3227910 ?x2436467 (_ bv398 32))))
 (let (($x2437367 (= ?x2434913 ?x2438685)))
 (not $x2437367))))))))))))))))))))))))))))))))
(assert
 (let ((?x2357 ((_ extract 815 808) mem_c0000f45_79_992)))
 (let ((?x2417 ((_ extract 751 744) mem_c0000f45_79_992)))
 (let (($x1690 (= ?x2417 ?x2357)))
 (let (($x3670 (not $x1690)))
 (let ((?x2362 ((_ extract 807 800) mem_c0000f45_79_992)))
 (let ((?x2410 ((_ extract 743 736) mem_c0000f45_79_992)))
 (let (($x1703 (= ?x2410 ?x2362)))
 (let (($x3664 (not $x1703)))
 (let ((?x2345 ((_ extract 783 776) mem_c0000f45_79_992)))
 (let ((?x2400 ((_ extract 719 712) mem_c0000f45_79_992)))
 (let (($x1701 (= ?x2400 ?x2345)))
 (let (($x3671 (not $x1701)))
 (let ((?x2363 ((_ extract 799 792) mem_c0000f45_79_992)))
 (let ((?x2411 ((_ extract 735 728) mem_c0000f45_79_992)))
 (let (($x1704 (= ?x2411 ?x2363)))
 (let (($x3672 (not $x1704)))
 (let ((?x2346 ((_ extract 791 784) mem_c0000f45_79_992)))
 (let ((?x2401 ((_ extract 727 720) mem_c0000f45_79_992)))
 (let (($x1693 (= ?x2401 ?x2346)))
 (let (($x4136 (not $x1693)))
 (let ((?x2364 ((_ extract 831 824) mem_c0000f45_79_992)))
 (let ((?x2419 ((_ extract 767 760) mem_c0000f45_79_992)))
 (let (($x1155 (= ?x2419 ?x2364)))
 (let (($x4137 (not $x1155)))
 (let ((?x2374 ((_ extract 839 832) mem_c0000f45_79_992)))
 (let ((?x2427 ((_ extract 775 768) mem_c0000f45_79_992)))
 (let (($x1152 (= ?x2427 ?x2374)))
 (let (($x4139 (not $x1152)))
 (let ((?x2349 ((_ extract 823 816) mem_c0000f45_79_992)))
 (let ((?x2429 ((_ extract 759 752) mem_c0000f45_79_992)))
 (let (($x1714 (= ?x2429 ?x2349)))
 (let (($x4539 (not $x1714)))
 (let (($x6038 (or $x4539 $x4139 $x4137 $x4136 $x3672 $x3671 $x3664 $x3670)))
 (let (($x9215 (not $x6038)))
 (let ((?x4533 (concat (concat (concat (concat (concat ?x2345 ?x2346) ?x2363) ?x2362) ?x2357) ?x2349)))
 (let ((?x4215 (concat ?x4533 ?x2364)))
 (let ((?x3812 (concat ?x4215 ?x2374)))
 (let ((?x3646 (bvmul (_ bv18446744073709551615 64) ?x3812)))
 (let ((?x3809 (concat (concat (concat (concat (concat ?x2400 ?x2401) ?x2411) ?x2410) ?x2417) ?x2429)))
 (let ((?x3823 (concat (concat ?x3809 ?x2419) ?x2427)))
 (let ((?x3827 (bvadd ?x3823 ?x3646)))
 (let ((?x2482 ((_ extract 63 63) ?x3827)))
 (let (($x2285 (= (_ bv1 1) ?x2482)))
 (or $x2285 $x9215)))))))))))))))))))))))))))))))))))))))))))))
(assert
 (= (_ bv4294967295 32) mem_c0001010_98_32))
(assert
 (let (($x41074 (= (_ bv10 8) mem_fffffff9feffffff_119_8)))
 (not $x41074)))
(assert
 (let ((?x590989 ((_ extract 15 8) mem_fffffff9ff000000_325_128)))
 (let (($x597471 (= (_ bv10 8) ?x590989)))
 (not $x597471))))
(assert
 (let ((?x597034 ((_ extract 7 0) mem_fffffff9ff000000_325_128)))
 (let (($x597943 (= (_ bv10 8) ?x597034)))
 (not $x597943))))
(assert
 (let ((?x590374 ((_ extract 23 16) mem_fffffff9ff000000_325_128)))
 (let (($x597733 (= (_ bv10 8) ?x590374)))
 (not $x597733))))
(assert
 (let ((?x600474 ((_ extract 31 24) mem_fffffff9ff000000_325_128)))
 (let (($x597846 (= (_ bv10 8) ?x600474)))
 (not $x597846))))
(assert
 (let ((?x584130 ((_ extract 39 32) mem_fffffff9ff000000_325_128)))
 (let (($x584310 (= (_ bv10 8) ?x584130)))
 (not $x584310))))
(assert
 (let ((?x588282 ((_ extract 47 40) mem_fffffff9ff000000_325_128)))
 (let (($x598130 (= (_ bv10 8) ?x588282)))
 (not $x598130))))
(assert
 (let ((?x588177 ((_ extract 55 48) mem_fffffff9ff000000_325_128)))
 (let (($x598174 (= (_ bv10 8) ?x588177)))
 (not $x598174))))
(assert
 (let ((?x597893 ((_ extract 63 56) mem_fffffff9ff000000_325_128)))
 (let (($x588188 (= (_ bv10 8) ?x597893)))
 (not $x588188))))
(assert
 (let ((?x586553 ((_ extract 71 64) mem_fffffff9ff000000_325_128)))
 (let (($x584279 (= (_ bv10 8) ?x586553)))
 (not $x584279))))
(assert
 (let ((?x586615 ((_ extract 79 72) mem_fffffff9ff000000_325_128)))
 (let (($x599962 (= (_ bv10 8) ?x586615)))
 (not $x599962))))
(assert
 (let ((?x587547 ((_ extract 87 80) mem_fffffff9ff000000_325_128)))
 (let (($x585313 (= (_ bv10 8) ?x587547)))
 (not $x585313))))
(assert
 (let ((?x588644 ((_ extract 95 88) mem_fffffff9ff000000_325_128)))
 (let (($x587396 (= (_ bv10 8) ?x588644)))
 (not $x587396))))
(assert
 (let ((?x586626 ((_ extract 103 96) mem_fffffff9ff000000_325_128)))
 (let (($x587613 (= (_ bv10 8) ?x586626)))
 (not $x587613))))
(assert
 (let ((?x598574 ((_ extract 111 104) mem_fffffff9ff000000_325_128)))
 (let (($x584394 (= (_ bv10 8) ?x598574)))
 (not $x584394))))
(assert
 (let ((?x598324 ((_ extract 119 112) mem_fffffff9ff000000_325_128)))
 (let (($x588151 (= (_ bv10 8) ?x598324)))
 (not $x588151))))
(assert
 (let ((?x587807 ((_ extract 127 120) mem_fffffff9ff000000_325_128)))
 (let (($x585885 (= (_ bv10 8) ?x587807)))
 (not $x585885))))
(assert
 (let ((?x14887 ((_ extract 327 320) mem_c0000f45_79_992)))
 (let ((?x14869 ((_ extract 319 312) mem_c0000f45_79_992)))
 (let ((?x14893 ((_ extract 311 304) mem_c0000f45_79_992)))
 (let ((?x14875 ((_ extract 303 296) mem_c0000f45_79_992)))
 (let ((?x14872 ((_ extract 295 288) mem_c0000f45_79_992)))
 (let ((?x14857 ((_ extract 287 280) mem_c0000f45_79_992)))
 (let ((?x15107 (concat (concat ((_ extract 271 264) mem_c0000f45_79_992) ((_ extract 279 272) mem_c0000f45_79_992)) ?x14857)))
 (let ((?x15071 (concat (concat (concat (concat (concat ?x15107 ?x14872) ?x14875) ?x14893) ?x14869) ?x14887)))
 (let ((?x2429923 (bvadd (_ bv17 64) ?x15071)))
 (let ((?x2429926 ((_ extract 63 4) ?x2429923)))
 (let ((?x2429929 (concat ?x2429926 (_ bv0 4))))
 (= (_ bv18446744047922970640 64) ?x2429929)))))))))))))
(assert
 (let ((?x2432160 ((_ extract 7 0) mem_fffffff9ff000010_1104_128)))
 (let (($x3219878 (= (_ bv10 8) ?x2432160)))
 (let ((?x3218208 (ite $x3219878 (_ bv1 1) (_ bv0 1))))
 (let ((?x3218327 ((_ extract 15 8) mem_fffffff9ff000010_1104_128)))
 (let (($x3219365 (= (_ bv10 8) ?x3218327)))
 (let ((?x3218878 (ite $x3219365 (_ bv1 1) (_ bv0 1))))
 (let ((?x3219862 ((_ extract 23 16) mem_fffffff9ff000010_1104_128)))
 (let (($x3217559 (= (_ bv10 8) ?x3219862)))
 (let ((?x3219508 (ite $x3217559 (_ bv1 1) (_ bv0 1))))
 (let ((?x3219724 ((_ extract 31 24) mem_fffffff9ff000010_1104_128)))
 (let (($x3217061 (= (_ bv10 8) ?x3219724)))
 (let ((?x3214789 (ite $x3217061 (_ bv1 1) (_ bv0 1))))
 (let ((?x3217808 ((_ extract 39 32) mem_fffffff9ff000010_1104_128)))
 (let (($x2431754 (= (_ bv10 8) ?x3217808)))
 (let ((?x3217981 (ite $x2431754 (_ bv1 1) (_ bv0 1))))
 (let ((?x3219760 ((_ extract 47 40) mem_fffffff9ff000010_1104_128)))
 (let (($x3217462 (= (_ bv10 8) ?x3219760)))
 (let ((?x3217781 (ite $x3217462 (_ bv1 1) (_ bv0 1))))
 (let ((?x3219533 ((_ extract 55 48) mem_fffffff9ff000010_1104_128)))
 (let (($x3216477 (= (_ bv10 8) ?x3219533)))
 (let ((?x188472 (ite $x3216477 (_ bv1 1) (_ bv0 1))))
 (let ((?x3218262 ((_ extract 63 56) mem_fffffff9ff000010_1104_128)))
 (let (($x3218924 (= (_ bv10 8) ?x3218262)))
 (let ((?x3217025 (ite $x3218924 (_ bv1 1) (_ bv0 1))))
 (let ((?x3218153 ((_ extract 71 64) mem_fffffff9ff000010_1104_128)))
 (let (($x3218813 (= (_ bv10 8) ?x3218153)))
 (let ((?x3218756 (ite $x3218813 (_ bv1 1) (_ bv0 1))))
 (let ((?x3218790 ((_ extract 79 72) mem_fffffff9ff000010_1104_128)))
 (let (($x3217715 (= (_ bv10 8) ?x3218790)))
 (let ((?x1604810 (ite $x3217715 (_ bv1 1) (_ bv0 1))))
 (let ((?x3218297 ((_ extract 87 80) mem_fffffff9ff000010_1104_128)))
 (let (($x3218956 (= (_ bv10 8) ?x3218297)))
 (let ((?x3218678 (ite $x3218956 (_ bv1 1) (_ bv0 1))))
 (let ((?x3219493 ((_ extract 95 88) mem_fffffff9ff000010_1104_128)))
 (let (($x3218696 (= (_ bv10 8) ?x3219493)))
 (let ((?x1604314 (ite $x3218696 (_ bv1 1) (_ bv0 1))))
 (let ((?x3219132 ((_ extract 103 96) mem_fffffff9ff000010_1104_128)))
 (let (($x3225602 (= (_ bv10 8) ?x3219132)))
 (let ((?x3218018 (ite $x3225602 (_ bv1 1) (_ bv0 1))))
 (let ((?x3212844 ((_ extract 111 104) mem_fffffff9ff000010_1104_128)))
 (let (($x3218882 (= (_ bv10 8) ?x3212844)))
 (let ((?x3217688 (ite $x3218882 (_ bv1 1) (_ bv0 1))))
 (let ((?x3219216 ((_ extract 119 112) mem_fffffff9ff000010_1104_128)))
 (let (($x3217136 (= (_ bv10 8) ?x3219216)))
 (let ((?x3217491 (ite $x3217136 (_ bv1 1) (_ bv0 1))))
 (let ((?x3217782 ((_ extract 127 120) mem_fffffff9ff000010_1104_128)))
 (let (($x3217408 (= (_ bv10 8) ?x3217782)))
 (let ((?x2429163 (ite $x3217408 (_ bv1 1) (_ bv0 1))))
 (let ((?x3218316 (concat (concat (concat (concat (concat ?x2429163 ?x3217491) ?x3217688) ?x3218018) ?x1604314) ?x3218678)))
 (let ((?x3219442 (concat (concat (concat (concat (concat ?x3218316 ?x1604810) ?x3218756) ?x3217025) ?x188472) ?x3217781)))
 (let ((?x3218959 (concat (concat (concat (concat (concat ?x3219442 ?x3217981) ?x3214789) ?x3219508) ?x3218878) ?x3218208)))
 (= (_ bv0 16) ?x3218959)))))))))))))))))))))))))))))))))))))))))))))))))))))
(maximize mem_c0000f45_79_992)
(minimize mem_fffffff9ff000010_1104_128)
(maximize mem_fffffff9feffffff_119_8)
(maximize syscall_stub_newfstatat_83_64)
(maximize mem_fffffff9ff000000_325_128)
(minimize syscall_stub_newfstatat_83_64)
(minimize mem_fffffff9ff000000_325_128)
(minimize mem_c0001010_98_32)
(minimize mem_fffffff9feffffff_119_8)
(maximize mem_fffffff9ff000010_1104_128)
(maximize mem_c0001010_98_32)
(minimize mem_c0000f45_79_992)
(check-sat)
(get-objectives)
